mixintcount/benchmarks/random_v2l/4_4_112.smt2
(set-logic QF_LIA)
(set-info :ran/ran2.smt2)
(set-info :smt-lib-version 2.0)
(declare-fun x1 () Int)
(declare-fun x2 () Int)
(declare-fun x3 () Int)
(declare-fun x4 () Int)
(assert (<= (+ (* (- 7) x1) (* 1 x2) (* 4 x3) (* (- 1) x4) ) 80))
(assert (<= (+ (* (- 10) x1) (* (- 3) x2) (* 1 x3) (* 3 x4) ) 95))
(assert (<= (+ (* 8 x1) (* (- 2) x2) (* 6 x3) (* 1 x4) ) 105))
(assert (<= (+ (* 10 x1) (* (- 4) x2) (* (- 2) x3) (* 5 x4) ) 64))
(assert (<= (+ (* 1 x1) (* 1 x2) (* (- 10) x3) (* 0 x4) ) (- 29)))
(assert (<= (+ (* 6 x1) (* 2 x2) (* (- 10) x3) (* (- 10) x4) ) (- 104)))
(assert (<= (+ (* 3 x1) (* (- 8) x2) (* 0 x3) (* (- 5) x4) ) (- 98)))
(assert (<= (+ (* (- 1) x1) (* (- 5) x2) (* 7 x3) (* 10 x4) ) 10))
(assert (<= (+ (* 1 x1) (* 0 x2) (* 0 x3) (* 0 x4) ) 112))
(assert (<= (+ (* (- 1) x1) (* 0 x2) (* 0 x3) (* 0 x4) ) 112))
(assert (<= (+ (* 0 x1) (* 1 x2) (* 0 x3) (* 0 x4) ) 112))
(assert (<= (+ (* 0 x1) (* (- 1) x2) (* 0 x3) (* 0 x4) ) 112))
(assert (<= (+ (* 0 x1) (* 0 x2) (* 1 x3) (* 0 x4) ) 112))
(assert (<= (+ (* 0 x1) (* 0 x2) (* (- 1) x3) (* 0 x4) ) 112))
(assert (<= (+ (* 0 x1) (* 0 x2) (* 0 x3) (* 1 x4) ) 112))
(assert (<= (+ (* 0 x1) (* 0 x2) (* 0 x3) (* (- 1) x4) ) 112))
