mixintcount/benchmarks/random_v2l/4_4_112.in
16 6
#	x1	x2	x3	x4;		0 = Real; 1 = Integer
	1	1	1	1
1	-7	1	4	-1	80
1	-10	-3	1	3	95
1	8	-2	6	1	105
1	10	-4	-2	5	64
1	1	1	-10	0	-29
1	6	2	-10	-10	-104
1	3	-8	0	-5	-98
1	-1	-5	7	10	10
1	1	0	0	0	112
1	-1	0	0	0	112
1	0	1	0	0	112
1	0	-1	0	0	112
1	0	0	1	0	112
1	0	0	-1	0	112
1	0	0	0	1	112
1	0	0	0	-1	112
